



10 10
5 12 8 6 9 10 0 12 1 2 7 19 6 1 2 8 4 1 3 3
9 4 8 7 7 13 3 8 6 7 5 16 1 17 4 7 0 14 2 5
0 3 4 11 9 10 2 10 7 14 8 13 6 19 3 11 5 12 1 10
1 5 3 17 0 17 8 11 6 4 4 10 5 18 2 3 7 5 9 14
0 15 2 17 7 9 1 3 9 4 8 14 4 10 3 5 6 5 5 9
1 19 4 2 6 7 0 15 5 9 2 8 7 17 8 6 9 3 3 3
9 15 1 12 4 11 6 9 8 17 2 6 7 10 5 14 0 9 3 11
4 12 2 7 0 1 3 15 5 5 1 12 6 4 7 1 8 15 9 18
0 7 3 1 8 2 1 7 4 5 6 19 7 6 5 7 2 19 9 19
6 15 9 8 0 17 2 8 7 12 3 15 4 9 5 9 8 9 1 17
